results_rootrelaxation/bin012_050_027.srr.sol
solution status: optimal solution found
objective value:                                    0
_var95_                             0.347262538260984 	(obj:0)
_var115_                           0.0050130772903354 	(obj:0)
_var392_                            0.031593035281554 	(obj:0)
_var455_                            0.172234247050129 	(obj:0)
_var522_                            0.228144639424519 	(obj:0)
_var631_                            0.146573944803949 	(obj:0)
_var651_                            0.314292316065376 	(obj:0)
_var690_                           0.0461473147360634 	(obj:0)
_var695_                            0.391831530537106 	(obj:0)
_var696_                            0.297257179286228 	(obj:0)
_var697_                           0.0221519137107601 	(obj:0)
_var699_                            0.262401572337119 	(obj:0)
_var703_                           0.0344732406207481 	(obj:0)
_var709_                           0.0123534807584946 	(obj:0)
_var710_                           0.0380065449088987 	(obj:0)
_var712_                            0.229312895920356 	(obj:0)
_var714_                           0.0800364967059806 	(obj:0)
_var715_                            0.125083064108651 	(obj:0)
_var717_                           0.0204678036972801 	(obj:0)
_var724_                              0.2959071352313 	(obj:0)
_var725_                            0.425253437747507 	(obj:0)
_var726_                            0.199650622685019 	(obj:0)
_var727_                            0.125083064108651 	(obj:0)
_var734_                            0.218118484843847 	(obj:0)
_var737_                            0.158737425548529 	(obj:0)
_var740_                            0.312261334231594 	(obj:0)
_var743_                           0.0772464891755583 	(obj:0)
_var744_                            0.119673840269142 	(obj:0)
_var747_                            0.194839655299608 	(obj:0)
_var752_                            0.422995569450221 	(obj:0)
_var753_                            0.365069228210195 	(obj:0)
_var755_                           0.0711025986155683 	(obj:0)
_var756_                            0.373133302061046 	(obj:0)
_var760_                             0.50147058618832 	(obj:0)
_var762_                            0.115907803363207 	(obj:0)
_var763_                           0.0920637063783009 	(obj:0)
_var764_                            0.262346451453947 	(obj:0)
_var765_                            0.202111853634566 	(obj:0)
_var770_                             0.03365283030424 	(obj:0)
_var772_                            0.156784949215011 	(obj:0)
_var773_                           0.0173481844211268 	(obj:0)
_var774_                            0.121593188395112 	(obj:0)
_var775_                           0.0451337029402039 	(obj:0)
_var776_                            0.405994674431848 	(obj:0)
_var777_                            0.178966511279605 	(obj:0)
_var779_                            0.342987885933166 	(obj:0)
_var781_                            0.213245158479496 	(obj:0)
_var784_                            0.236585094255315 	(obj:0)
_var785_                           0.0223874302115284 	(obj:0)
_var786_                           0.0819394199223054 	(obj:0)
_var787_                           0.0142388655120102 	(obj:0)
_var788_                            0.235095299274372 	(obj:0)
_var790_                            0.196855882553549 	(obj:0)
_var792_                            0.172520430221269 	(obj:0)
_var793_                             0.37344634970303 	(obj:0)
_var799_                           0.0163061770187752 	(obj:0)
_var800_                            0.133288002438687 	(obj:0)
_var801_                             0.12306683685471 	(obj:0)
_var802_                            0.265397169626157 	(obj:0)
_var803_                           0.0546357915484254 	(obj:0)
_var805_                            0.116623400485226 	(obj:0)
_var806_                           0.0206404044425294 	(obj:0)
_var812_                           0.0411822594272757 	(obj:0)
_var814_                           0.0424746771043713 	(obj:0)
